Problem:    PacchiPostali
Rows:       50
Columns:    48 (48 integer, 48 binary)
Non-zeros:  280
Status:     INTEGER OPTIMAL
Objective:  z = 20000 (MINimum)

   No.   Row name        Activity     Lower bound   Upper bound
------ ------------    ------------- ------------- -------------
     1 disponibilita[1,1]
                                   0                           2 
     2 disponibilita[1,2]
                                   1                           2 
     3 disponibilita[2,1]
                                   0                           2 
     4 disponibilita[2,2]
                                   1                           2 
     5 disponibilita[3,1]
                                   0                           2 
     6 disponibilita[3,2]
                                   1                           2 
     7 disponibilita[4,1]
                                   0                           2 
     8 disponibilita[4,2]
                                   1                           2 
     9 disponibilita[5,1]
                                   1                           2 
    10 disponibilita[5,2]
                                   0                           2 
    11 disponibilita[6,1]
                                   0                           2 
    12 disponibilita[6,2]
                                   1                           2 
    13 disponibilita[7,1]
                                   0                           2 
    14 disponibilita[7,2]
                                   1                           2 
    15 disponibilita[8,1]
                                   1                           2 
    16 disponibilita[8,2]
                                   0                           2 
    17 disponibilita[9,1]
                                   1                           2 
    18 disponibilita[9,2]
                                   0                           2 
    19 disponibilita[10,1]
                                   0                           2 
    20 disponibilita[10,2]
                                   1                           2 
    21 disponibilita[11,1]
                                   0                           2 
    22 disponibilita[11,2]
                                   1                           2 
    23 volumeMinimo[1,1]
                                  33            -0               
    24 volumeMinimo[1,2]
                                   0            -0               
    25 volumeMinimo[2,1]
                                  78            -0               
    26 volumeMinimo[2,2]
                                   0            -0               
    27 volumeMassimo[1,1]
                                -117                          -0 
    28 volumeMassimo[1,2]
                                   0                          -0 
    29 volumeMassimo[2,1]
                                -802                          -0 
    30 volumeMassimo[2,2]
                                   0                          -0 
    31 pesoMinimo[1,1]
                                1345            -0               
    32 pesoMinimo[1,2]
                                   0            -0               
    33 pesoMinimo[2,1]
                                2970            -0               
    34 pesoMinimo[2,2]
                                   0            -0               
    35 pesoMassimo[1,1]
                                -155                          -0 
    36 pesoMassimo[1,2]
                                   0                          -0 
    37 pesoMassimo[2,1]
                                 -30                          -0 
    38 pesoMassimo[2,2]
                                   0                          -0 
    39 assegnamento[1]
                                   1             1             = 
    40 assegnamento[2]
                                   1             1             = 
    41 assegnamento[3]
                                   1             1             = 
    42 assegnamento[4]
                                   1             1             = 
    43 assegnamento[5]
                                   1             1             = 
    44 assegnamento[6]
                                   1             1             = 
    45 assegnamento[7]
                                   1             1             = 
    46 assegnamento[8]
                                   1             1             = 
    47 assegnamento[9]
                                   1             1             = 
    48 assegnamento[10]
                                   1             1             = 
    49 assegnamento[11]
                                   1             1             = 
    50 z                       20000                             

   No. Column name       Activity     Lower bound   Upper bound
------ ------------    ------------- ------------- -------------
     1 y[1,1]       *              1             0             1 
     2 y[1,2]       *              0             0             1 
     3 y[2,1]       *              1             0             1 
     4 y[2,2]       *              0             0             1 
     5 x[1,1,1]     *              0             0             1 
     6 x[1,1,2]     *              0             0             1 
     7 x[1,2,1]     *              1             0             1 
     8 x[1,2,2]     *              0             0             1 
     9 x[2,1,1]     *              0             0             1 
    10 x[2,1,2]     *              0             0             1 
    11 x[2,2,1]     *              1             0             1 
    12 x[2,2,2]     *              0             0             1 
    13 x[3,1,1]     *              0             0             1 
    14 x[3,1,2]     *              0             0             1 
    15 x[3,2,1]     *              1             0             1 
    16 x[3,2,2]     *              0             0             1 
    17 x[4,1,1]     *              0             0             1 
    18 x[4,1,2]     *              0             0             1 
    19 x[4,2,1]     *              1             0             1 
    20 x[4,2,2]     *              0             0             1 
    21 x[5,1,1]     *              1             0             1 
    22 x[5,1,2]     *              0             0             1 
    23 x[5,2,1]     *              0             0             1 
    24 x[5,2,2]     *              0             0             1 
    25 x[6,1,1]     *              0             0             1 
    26 x[6,1,2]     *              0             0             1 
    27 x[6,2,1]     *              1             0             1 
    28 x[6,2,2]     *              0             0             1 
    29 x[7,1,1]     *              0             0             1 
    30 x[7,1,2]     *              0             0             1 
    31 x[7,2,1]     *              1             0             1 
    32 x[7,2,2]     *              0             0             1 
    33 x[8,1,1]     *              1             0             1 
    34 x[8,1,2]     *              0             0             1 
    35 x[8,2,1]     *              0             0             1 
    36 x[8,2,2]     *              0             0             1 
    37 x[9,1,1]     *              1             0             1 
    38 x[9,1,2]     *              0             0             1 
    39 x[9,2,1]     *              0             0             1 
    40 x[9,2,2]     *              0             0             1 
    41 x[10,1,1]    *              0             0             1 
    42 x[10,1,2]    *              0             0             1 
    43 x[10,2,1]    *              1             0             1 
    44 x[10,2,2]    *              0             0             1 
    45 x[11,1,1]    *              0             0             1 
    46 x[11,1,2]    *              0             0             1 
    47 x[11,2,1]    *              1             0             1 
    48 x[11,2,2]    *              0             0             1 

Integer feasibility conditions:

KKT.PE: max.abs.err = 0.00e+000 on row 0
        max.rel.err = 0.00e+000 on row 0
        High quality

KKT.PB: max.abs.err = 0.00e+000 on row 0
        max.rel.err = 0.00e+000 on row 0
        High quality

End of output
